experiments/eusolverstring/9/TrainGenes/0111000110111100000100011011001101100111101110110001110000000000000000/95_.sl
(set-logic SLIA)
(define-fun func0  ((A String) (B Int) ) String (str.substr A  0  B ))
(define-fun func1  ((A String) (B String) (C Int) ) String (str.substr A  0  (str.indexof A  B  C )))
(define-fun func2  ((A String) (B String) ) String (str.substr A  0  (str.indexof A  B  0 )))
(define-fun func3  ((A String) (B String) ) String (str.substr A  0  (str.indexof A  B  1 )))
(define-fun func4  ((A String) (B String) (C String) (D Int) ) String (str.substr A  0  (str.indexof B  C  D )))
(define-fun func5  ((A String) (B String) (C String) ) String (str.substr A  0  (str.indexof B  C  0 )))
(define-fun func6  ((A String) (B String) (C String) ) String (str.substr A  0  (str.indexof B  C  1 )))
(define-fun func7  ((A String) (B Int) (C String) (D Int) ) String (str.substr A  (+ 1  (str.indexof A  C  D )) B ))
(define-fun func8  ((A String) (B Int) (C String) (D String) (E Int) ) String (str.substr A  (+ 1  (str.indexof C  D  E )) B ))
(define-fun func9  ((A String) (B Int) (C Int) ) String (str.substr A  (+ 1  C ) B ))
(define-fun func10  ((A String) (B Int) ) String (str.substr A  (+ 3  5 ) B ))
(define-fun func11  ((A String) (B Int) (C Int) ) String (str.substr A  (+ 3  C ) B ))
(define-fun func12  ((A String) (B Int) (C Int) (D String) (E Int) ) String (str.substr A  (+ C  (str.indexof A  D  E )) B ))
(define-fun func13  ((A String) (B Int) (C Int) (D String) (E String) (F Int) ) String (str.substr A  (+ C  (str.indexof D  E  F )) B ))
(define-fun func14  ((A String) (B Int) (C Int) ) String (str.substr A  (+ C  5 ) B ))
(define-fun func15  ((A String) (B Int) (C Int) (D Int) ) String (str.substr A  (+ C  D ) B ))
(define-fun func16  ((A String) (B Int) (C Int) ) String (str.substr A  (+ B  C ) (str.len A )))
(define-fun func17  ((A String) (B Int) (C Int) ) String (str.substr A  (+ B  C ) 3 ))
(define-fun func18  ((A String) (B Int) ) String (str.substr A  3  B ))
(define-fun func19  ((A String) (B Int) (C Int) ) String (str.substr A  (- (str.len A ) C ) B ))
(define-fun func20  ((A String) (B Int) (C Int) (D String) ) String (str.substr A  (- (str.len D ) C ) B ))
(define-fun func21  ((A String) (B Int) (C String) ) String (str.substr A  (- (str.len C ) 3 ) B ))
(define-fun func22  ((A String) (B Int) (C Int) ) String (str.substr A  (- C  3 ) B ))
(define-fun func23  ((A String) (B Int) (C Int) (D Int) ) String (str.substr A  (- C  D ) B ))
(define-fun func24  ((A String) (B Int) (C Int) ) String (str.substr A  (- B  C ) 3 ))
(define-fun func25  ((A String) (B Int) (C String) (D Int) ) String (str.substr A  B  (str.indexof A  C  D )))
(define-fun func26  ((A String) (B Int) (C String) ) String (str.substr A  B  (str.indexof A  C  0 )))
(define-fun func27  ((A String) (B Int) (C String) ) String (str.substr A  B  (str.indexof A  C  1 )))
(define-fun func28  ((A String) (B Int) (C String) (D String) (E Int) ) String (str.substr A  B  (str.indexof C  D  E )))
(define-fun func29  ((A String) (B Int) (C String) (D String) ) String (str.substr A  B  (str.indexof C  D  0 )))
(define-fun func30  ((A String) (B Int) (C String) (D String) ) String (str.substr A  B  (str.indexof C  D  1 )))
(define-fun func31  ((A String) (B Int) ) String (str.substr A  B  (str.len A )))
(define-fun func32  ((A String) (B Int) ) String (str.substr A  B  3 ))
(define-fun func33  ((A String) (B Int) (C Int) (D String) ) String (str.substr A  (+ B  C ) (str.len D )))
(define-fun func34  ((A String) (B Int) (C String) ) String (str.substr A  B  (str.len C )))
(define-fun func35  ((A String) (B String) (C Int) ) Int (+ 1  (str.indexof A  B  C )))
(define-fun func37  ((A Int) (B String) (C String) (D Int) ) Int (+ A  (str.indexof B  C  D )))
(define-fun func38  ((A Int) ) Int (+ A  5 ))
(define-fun func39  ((A String) (B String) ) Int (str.indexof A  B  0 ))
(define-fun func40  ((A String) (B String) ) Int (str.indexof A  B  1 ))
(define-fun func41  ((A String) (B String) (C String) ) String (str.++ A  (str.++ B  C )))
(define-fun func42  ((A String) (B String) (C String) (D String) (E Int) ) String (str.++ A  (str.++ B  (str.++ (str.at D  E ) C ))))
(define-fun func43  ((A String) (B String) (C String) (D String) ) String (str.++ A  (str.++ B  (str.++ C  D ))))
(define-fun func44  ((A String) (B String) (C String) (D Int) ) String (str.++ A  (str.++ (str.at C  D ) B )))
(define-fun func45  ((A String) (B String) (C String) (D String) (E String) ) String (str.++ A  (str.replace B  C  (str.++ D  E ))))
(define-fun func46  ((A String) (B String) (C Int) ) String (str.++ (str.at B  C ) A ))
(define-fun func47  ((A String) (B String) ) String (str.++ (str.at B  0 ) A ))
(define-fun func48  ((A String) (B Int) (C String) (D String) (E String) ) String (str.++ (str.at A  B ) (str.++ C  (str.++ D  E ))))
(define-fun func49  ((A String) (B String) (C String) (D String) ) String (str.replace A  B  (str.++ C  D )))
(define-fun func50  ((A String) (B String) (C String) (D String) (E String) ) String (str.replace (str.replace C  D  E ) A  B ))
(define-fun func51  ((A String) ) String (str.at A  0 ))
(define-fun func52  ((A Int) (B String) ) Int (- (str.len B ) A ))
(define-fun func53  ((A String) ) Int (- (str.len A ) 3 ))
(define-fun func54  ((A Int) ) Int (- A  3 ))
(synth-fun f ((firstname String) (lastname String)) String
( (Start String (ntString))
 (ntString String (
	firstname lastname " " "." 
	(func1 ntString ntString ntInt)
	(func2 ntString ntString)
	(func3 ntString ntString)
	(func7 ntString ntInt ntString ntInt)
	(func8 ntString ntInt ntString ntString ntInt)
	(func10 ntString ntInt)
	(func11 ntString ntInt ntInt)
	(func12 ntString ntInt ntInt ntString ntInt)
	(func13 ntString ntInt ntInt ntString ntString ntInt)
	(func19 ntString ntInt ntInt)
	(func23 ntString ntInt ntInt ntInt)
	(func24 ntString ntInt ntInt)
	(func26 ntString ntInt ntString)
	(func27 ntString ntInt ntString)
	(func30 ntString ntInt ntString ntString)
	(func31 ntString ntInt)
	(func33 ntString ntInt ntInt ntString)
	(func34 ntString ntInt ntString)
	(func43 ntString ntString ntString ntString)
	(func44 ntString ntString ntString ntInt)
	(func45 ntString ntString ntString ntString ntString)
	(func46 ntString ntString ntInt)
	(func48 ntString ntInt ntString ntString ntString)
	(func49 ntString ntString ntString ntString)
	(func50 ntString ntString ntString ntString ntString)
	(str.++ ntString ntString)
	(str.replace ntString ntString ntString)
	(str.at ntString ntInt)
	(int.to.str ntInt)
	(ite ntBool ntString ntString)
	(str.substr ntString ntInt ntInt)
))
 (ntInt Int (
	0 1 2 
	(func35 ntString ntString ntInt)
	(func37 ntInt ntString ntString ntInt)
	(func52 ntInt ntString)
	(func53 ntString)
	(func54 ntInt)
	(+ ntInt ntInt)
	(- ntInt ntInt)
	(str.len ntString)
	(str.to.int ntString)
	(ite ntBool ntInt ntInt)
	(str.indexof ntString ntString ntInt)
))
 (ntBool Bool (
	true false
	(= ntInt ntInt)
	(str.prefixof ntString ntString)
	(str.suffixof ntString ntString)
	(str.contains ntString ntString)
))
))
(constraint (= (f "Launa" "Withers") "L. Withers"))
(constraint (= (f "Lakenya" "Edison") "L. Edison"))
(constraint (= (f "Brendan" "Hage") "B. Hage"))
(constraint (= (f "Bradford" "Lango") "B. Lango"))
(constraint (= (f "Rudolf" "Akiyama") "R. Akiyama"))
(constraint (= (f "Lara" "Constable") "L. Constable"))
(constraint (= (f "Madelaine" "Ghoston") "M. Ghoston"))
(constraint (= (f "Salley" "Hornak") "S. Hornak"))
(constraint (= (f "Micha" "Junkin") "M. Junkin"))
(constraint (= (f "Teddy" "Bobo") "T. Bobo"))
(constraint (= (f "Coralee" "Scalia") "C. Scalia"))
(constraint (= (f "Jeff" "Quashie") "J. Quashie"))
(constraint (= (f "Vena" "Babiarz") "V. Babiarz"))
(constraint (= (f "Karrie" "Lain") "K. Lain"))
(constraint (= (f "Tobias" "Dermody") "T. Dermody"))
(constraint (= (f "Celsa" "Hopkins") "C. Hopkins"))
(constraint (= (f "Kimberley" "Halpern") "K. Halpern"))
(constraint (= (f "Phillip" "Rowden") "P. Rowden"))
(constraint (= (f "Elias" "Neil") "E. Neil"))
(constraint (= (f "Lashanda" "Cortes") "L. Cortes"))
(constraint (= (f "Mackenzie" "Spell") "M. Spell"))
(constraint (= (f "Kathlyn" "Eccleston") "K. Eccleston"))
(constraint (= (f "Georgina" "Brescia") "G. Brescia"))
(constraint (= (f "Beata" "Miah") "B. Miah"))
(constraint (= (f "Desiree" "Seamons") "D. Seamons"))
(constraint (= (f "Jeanice" "Soderstrom") "J. Soderstrom"))
(constraint (= (f "Mariel" "Jurgens") "M. Jurgens"))
(constraint (= (f "Alida" "Bogle") "A. Bogle"))
(constraint (= (f "Jacqualine" "Olague") "J. Olague"))
(constraint (= (f "Joaquin" "Clasen") "J. Clasen"))
(constraint (= (f "Samuel" "Richert") "S. Richert"))
(constraint (= (f "Malissa" "Marcus") "M. Marcus"))
(constraint (= (f "Alaina" "Partida") "A. Partida"))
(constraint (= (f "Trinidad" "Mulloy") "T. Mulloy"))
(constraint (= (f "Carlene" "Garrard") "C. Garrard"))
(constraint (= (f "Melodi" "Chism") "M. Chism"))
(constraint (= (f "Bess" "Chilcott") "B. Chilcott"))
(constraint (= (f "Chong" "Aylward") "C. Aylward"))
(constraint (= (f "Jani" "Ramthun") "J. Ramthun"))
(constraint (= (f "Jacquiline" "Heintz") "J. Heintz"))
(constraint (= (f "Hayley" "Marquess") "H. Marquess"))
(constraint (= (f "Andria" "Spagnoli") "A. Spagnoli"))
(constraint (= (f "Irwin" "Covelli") "I. Covelli"))
(constraint (= (f "Gertude" "Montiel") "G. Montiel"))
(constraint (= (f "Stefany" "Reily") "S. Reily"))
(constraint (= (f "Rae" "Mcgaughey") "R. Mcgaughey"))
(constraint (= (f "Cruz" "Latimore") "C. Latimore"))
(constraint (= (f "Maryann" "Casler") "M. Casler"))
(constraint (= (f "Annalisa" "Gregori") "A. Gregori"))
(constraint (= (f "Jenee" "Pannell") "J. Pannell"))
(check-synth)
