experiments/eusolverstring/9/TrainGenes/0111000110111100000100011011001101100111101110110001110000000000000000/95_.out
1 {f:func48(Param0,0,"."," ",Param1)}
0.0000840000
0.0000000000
0.7911030000
